(declare-fun bvlambda_6_ ()Bool         )
(declare-fun bvlambda_7_ ()Bool         )
(declare-fun bvlambda_8_ () (_ BitVec 3))
(declare-fun bvlambda_9_ () (_ BitVec 2))
(declare-fun bvlambda_10_ ()Bool         )
(declare-fun a44 () (Array (_ BitVec 1) (_ BitVec 2)))
(assert
(let (($e3 (_ bv7618 14)))
(let (($e5 (_ bv0 6)))
(let (($e7 (_ bv65534 16)))
(let (($e47 (concat $e5 bvlambda_6_)))
(let (($e48 (concat $e47 bvlambda_7_)))
(let (($e49 (concat $e48 bvlambda_8_)))
(let (($e50 (concat $e49 bvlambda_9_)))
(let (($e51 (concat $e50 bvlambda_10_)))
(let (($e52      (bvult        $e3  $e51)         ))
(let (($e65               $e7               ))
(let (($e66                   $e65      ))
(let (($e128 ((_ extract 6 5) $e66)))
(let (($e129 (store a44 true        $e128)))
(
                 extract(select $e129(bvnot $e52))
                                                                                                                                                                                                                                                         )                    ))                                                             ))            ))))))                      ) ) )  )
